conp phon eigenvectors
title
ASE calculation
end

cell
3.4703 10.0 10.0 90.0 90.0 90.0
frac
 Mg core 0.0  0.0  0.0
 O  core 0.5  0.0  0.0

library ionic.lib
shrink 100 1 1
dispersion 1 100
-0.5 0.0 0.0 to -0.25 0.0 0.0 to 0.0 0.0 0.0 to 0.25 0.0 0.0 to 0.5 0.0 0.0
output phon mgo_chain
output eig mgo_chain
